50
    1     2     4
    2    45    48
    3    62    54
    4    64    63
    5    32    28
    6    97    94
    7     1     1
    8     8     8
    9    67    69
   10    60    70
   11    12     8
   12    76    83
   13    88    96
   14    25    16
   15    67    61
   16     5     1
   17    72    81
   18    93    96
   19   103    97
   20    62    58
   21    47    37
   22    49    44
   23    49    56
   24    40    31
   25    74    65
   26    36    32
   27    61    70
   28    30    36
   29    15    10
   30    66    71
   31    89    98
   32    90   100
   33    49    40
   34    19    17
   35    49    44
   36     1     9
   37    42    48
   38    49    53
   39    67    60
   40    54    59
   41    56    51
   42     6     2
   43    20    30
   44    31    34
   45    36    31
   46    48    47
   47    51    58
   48    26    26
   49    65    59
   50    64    68
807
